(set-logic ALL)
(set-option :produce-models true)
(declare-sort BoundSet 0)
(declare-sort UnboundSet 0)
(set-option :finite-model-find true)
(declare-fun IsWearing (BoundSet BoundSet) Bool)
(declare-fun IsBrown (BoundSet) Bool)
(declare-fun IsWearingBrown (BoundSet) Bool)
(assert (not (=> (exists ((b BoundSet)) (exists ((a BoundSet)) (and (IsWearing a b) (IsBrown b)))) (exists ((c BoundSet)) (IsWearingBrown c)))))
(check-sat)
(get-model)